60
-62   67
 95  -18
 16  -69
-12   18
-75    1
-25  -56
 93  -19
 21  -96
 64  -100
 35  -61
 -2   59
 23   34
 36   25
-67  -39
-49   75
 51   70
 32  -59
  5   87
-55   24
-42   41
-77   54
-99  -40
-57   45
 42  100
-85  -60
-70  -91
-21   39
 97   31
-20   -6
 29    7
 74  -98
  4   94
 40  -88
 56   79
 48  -45
-28   86
-38   91
-17  -93
  3   71
-24   68
 43   60
-33   99
 20  -48
-72  -52
-22   17
-83    8
 88  -90
-29   81
 47   76
  9   22
  2  -13
-50  -79
 46  -84
-66   69
 44   62
-36   28
 13  -54
-31   37
 65   26
 -7   53